c gen_tree
c unsolvable 4
p cnf 191 242
-1 -2 0
1 3 0
-1 4 0
1 5 0
-1 -6 0
-1 7 0
2 3 1 0
2 -8 0
-2 -9 0
-2 10 0
8 -9 2 0
9 -11 0
-11 12 0
12 -13 0
10 -14 0
-10 -15 0
-14 15 -10 0
14 16 0
-16 -17 0
17 -18 0
17 -19 0
-17 -20 0
18 19 17 0
18 21 0
-21 -22 0
22 -23 0
-19 -24 0
-24 25 0
25 26 0
-26 27 0
-20 28 0
28 -29 0
-15 30 0
3 31 0
-3 32 0
31 32 3 0
31 -33 0
31 -34 0
33 -34 31 0
33 -35 0
-35 -36 0
-36 37 0
-34 -38 0
32 -39 0
-32 -40 0
39 40 -32 0
39 41 0
-41 42 0
42 -43 0
40 -44 0
44 45 0
-44 46 0
45 -46 -44 0
45 -47 0
-45 -48 0
47 -48 -45 0
-47 49 0
49 -50 0
50 51 0
48 -52 0
52 53 0
-46 54 0
-54 -55 0
-55 -56 0
56 57 0
4 58 0
4 -59 0
4 60 0
-58 59 -4 0
58 -61 0
-61 62 0
62 -63 0
59 64 0
-59 65 0
64 -65 -59 0
64 -66 0
-65 -67 0
-67 68 0
-60 69 0
60 -70 0
69 70 -60 0
69 71 0
-71 -72 0
-70 -73 0
73 -74 0
5 -75 0
5 76 0
-5 -77 0
-75 76 -5 0
75 -78 0
-75 79 0
78 79 -75 0
79 80 0
80 -81 0
76 82 0
-76 -83 0
-82 -83 76 0
-82 84 0
84 85 0
83 86 0
-86 -87 0
77 88 0
-88 -89 0
89 90 0
90 91 0
-90 92 0
90 -93 0
-91 92 -90 0
91 94 0
94 95 0
95 96 0
-92 97 0
-97 -98 0
98 -99 0
-93 -100 0
93 -101 0
100 101 93 0
-100 102 0
-102 -103 0
103 104 0
101 -105 0
-105 -106 0
6 -107 0
-6 108 0
107 108 6 0
-107 -109 0
107 -110 0
109 -110 107 0
-109 -111 0
111 112 0
110 113 0
108 114 0
-114 115 0
-115 116 0
116 117 0
117 -118 0
-117 -119 0
118 -119 -117 0
-118 120 0
120 -121 0
121 -122 0
-122 -123 0
119 124 0
-119 -125 0
124 125 -119 0
124 126 0
-126 -127 0
125 -128 0
-128 -129 0
-129 130 0
7 131 0
-7 -132 0
131 -132 -7 0
131 -133 0
131 -134 0
-133 134 -131 0
133 -135 0
135 136 0
-136 137 0
134 -138 0
138 -139 0
139 140 0
-132 -141 0
132 142 0
141 142 132 0
141 -143 0
143 144 0
144 -145 0
142 -146 0
-146 147 0
23 -149 0
23 -148 0
149 148 0
83 -151 0
83 -150 0
151 150 0
5 -153 0
5 -152 0
153 152 0
64 -155 0
64 -154 0
155 154 0
126 -157 0
126 -156 0
157 156 0
2 -159 0
2 -158 0
159 158 0
9 -161 0
9 -160 0
161 160 0
84 -163 0
84 -162 0
163 162 0
114 -165 0
114 -164 0
165 164 0
124 -167 0
124 -166 0
167 166 0
155 -169 0
155 -168 0
169 168 0
54 -171 0
54 -170 0
171 170 0
149 -173 0
149 -172 0
173 172 0
136 -175 0
136 -174 0
175 174 0
59 -177 0
59 -176 0
177 176 0
25 -179 0
25 -178 0
179 178 0
17 -181 0
17 -180 0
181 180 0
29 -183 0
29 -182 0
183 182 0
34 -185 0
34 -184 0
185 184 0
73 -187 0
73 -186 0
187 186 0
12 -189 0
12 -188 0
189 188 0
101 -191 0
101 -190 0
191 190 0
137 -29 0
-66 23 0
127 -137 0
127 72 0
106 -140 0
99 23 -87 0
